instances/knapsack/discrete/knapsack_140_17.kp
29384
140
642

67 6.7 57
95 9.5 78
33 3.3 67
86 8.6 3
83 8.3 9
65 6.5 8
28 2.8 65
95 9.5 39
40 4.0 58
17 1.7 30
79 7.9 78
90 9.0 94
35 3.5 94
31 3.1 85
60 6.0 94
44 4.4 31
96 9.6 1
11 1.1 37
52 5.2 78
37 3.7 25
8 0.8 1
91 9.1 70
51 5.1 35
42 4.2 91
40 4.0 96
67 6.7 54
13 1.3 51
43 4.3 31
77 7.7 33
62 6.2 56
13 1.3 24
99 9.9 35
51 5.1 11
100 10.0 58
83 8.3 99
52 5.2 68
59 5.9 60
100 10.0 46
7 0.7 50
46 4.6 71
22 2.2 15
17 1.7 1
41 4.1 49
77 7.7 94
26 2.6 54
18 1.8 74
49 4.9 80
17 1.7 68
46 4.6 88
59 5.9 21
22 2.2 38
63 6.3 78
32 3.2 54
63 6.3 24
16 1.6 23
91 9.1 73
8 0.8 22
94 9.4 3
7 0.7 15
45 4.5 22
44 4.4 95
6 0.6 13
99 9.9 37
58 5.8 97
71 7.1 6
3 0.3 40
20 2.0 40
34 3.4 77
47 4.7 44
73 7.3 1
45 4.5 80
81 8.1 2
25 2.5 76
38 3.8 49
87 8.7 54
8 0.8 65
46 4.6 29
82 8.2 100
4 0.4 59
50 5.0 67
29 2.9 30
57 5.7 13
42 4.2 97
45 4.5 93
65 6.5 20
13 1.3 100
79 7.9 89
35 3.5 30
77 7.7 99
26 2.6 70
40 4.0 1
40 4.0 41
92 9.2 81
19 1.9 16
91 9.1 79
28 2.8 30
8 0.8 24
24 2.4 95
31 3.1 36
43 4.3 48
8 0.8 64
47 4.7 13
21 2.1 6
99 9.9 45
72 7.2 10
25 2.5 82
62 6.2 37
46 4.6 24
90 9.0 69
12 1.2 40
2 0.2 69
42 4.2 65
24 2.4 45
84 8.4 75
96 9.6 89
82 8.2 68
58 5.8 10
8 0.8 12
8 0.8 25
80 8.0 26
15 1.5 69
20 2.0 74
7 0.7 77
30 3.0 66
4 0.4 87
6 0.6 68
63 6.3 76
99 9.9 69
90 9.0 35
94 9.4 100
97 9.7 50
36 3.6 2
62 6.2 51
27 2.7 78
68 6.8 25
49 4.9 51
60 6.0 88
14 1.4 57
69 6.9 14
7 0.7 17

11089
639

[1.66 2.93 0.12 2.27 1.82 0.95 2.12 1.28 0.2 0.58 1.02 3.22 1.04 0.98 3.6 3.65 3.73 1.04 2.66 1.3 3.72 2.02 0.58 3.12 0.58 1.73 1.15 1.4 2.63 1.92 2.4 4.3 1.69 2.04 4.41 2.9 0.41 2.18 2.8 3.7 4.06 3.91 1.13 0.3 2.38 3.82 3.28 3.92 2.8 0.77 2.65 2.72 3.37 4.37 4.09 1.24 2.6 1.77 1.55 2.98 3.54 1.93 1.97 2.83 1.17 1.94 1.64 4.11 3.53 4.56 3.25 0.19 0.16 2.86 4.15 1.64 1.22 3.97 2.65 2.25 2.45 2.52 2.99 1.93 0.98 1.48 0.2 0.75 2.65 0.11 0.32 1.83 0.08 2.32 0.96 3.11 2.47 4.42 4.44 0.1 4.41 1.27 1.68 0.79 4.47 1.98 0.15 3.62 3.43 2.54 1.93 4.15 3.06 1.55 2.23 1.74 1.17 0.39 2.94 0.32 3.53 3.96 0.09 0.95 2.81 0.72 0.22 0.77 3.74 3.72 0.58 4.41 2.34 0.97 1.18 0.57 0.52 1.61 4.27 1.66]

[9 90 60 45 70 95 19 85 79 80 73 33 26 70 38 10 39 2 63 16 39 65 90 20 2 46 44 25 7 9 75 85 21 31 54 3 14 98 50 64 85 47 64 63 29 76 27 31 57 10 68 82 75 82 70 29 71 44 38 4 94 8 57 48 85 46 66 88 50 23 23 27 76 45 21 18 24 93 6 40 3 3 76 63 55 7 17 6 72 49 78 58 50 29 58 71 15 58 74 38 35 98 32 30 35 20 9 36 80 55 88 61 99 43 63 80 13 19 95 86 77 54 45 8 19 4 5 57 72 73 75 91 20 78 22 96 11 24 7 90]
