instances/knapsack/discrete_knapsack_uncertainty/knapsack_140_17.lp
\ Model knapsack_140_17
\ LP format - for model browsing. Use MPS format to capture full model detail.
\ Signature: 0x9977cb8fbdb63468
Minimize
  - 15 x[0] - 24 x[1] - 17 x[2] - 13 x[3] - 79 x[4] - 58 x[5] - 43 x[6]
   - 25 x[7] - 48 x[8] - 48 x[9] - 52 x[10] - 92 x[11] - 64 x[12]
   - 91 x[13] - 96 x[14] - 41 x[15] - 87 x[16] - 67 x[17] - 12 x[18]
   - 99 x[19] - 83 x[20] - 48 x[21] - 49 x[22] - 5 x[23] - 2 x[24]
   - 4 x[25] - x[26] - 97 x[27] - 95 x[28] - 46 x[29] - 86 x[30] - 33 x[31]
   - 33 x[32] - 64 x[33] - 29 x[34] - 50 x[35] - 26 x[36] - 40 x[37]
   - 52 x[38] - 65 x[39] - x[40] - 11 x[41] - 83 x[42] - 64 x[43]
   - 80 x[44] - 88 x[45] - 14 x[46] - 62 x[47] - 22 x[48] - 3 x[49]
   - 88 x[50] - 32 x[51] - 40 x[52] - 66 x[53] - 73 x[54] - 39 x[55]
   - 64 x[56] - 77 x[57] - 5 x[58] - 8 x[59] - 69 x[60] - 47 x[61]
   - 79 x[62] - 7 x[63] - 92 x[64] - 22 x[65] - 90 x[66] - 7 x[67]
   - 98 x[68] - 91 x[69] - 22 x[70] - 88 x[71] - 78 x[72] - 39 x[73]
   - 84 x[74] - 23 x[75] - 19 x[76] - 90 x[77] - 45 x[78] - 81 x[79]
   - 72 x[80] - 87 x[81] - 7 x[82] - 63 x[83] - 62 x[84] - 10 x[85]
   - 99 x[86] - 8 x[87] - 21 x[88] - 20 x[89] - 19 x[90] - 19 x[91]
   - 15 x[92] - 90 x[93] - 53 x[94] - 56 x[95] - 78 x[96] - 9 x[97]
   - 6 x[98] - 74 x[99] - 70 x[100] - 43 x[101] - 48 x[102] - 87 x[103]
   - 20 x[104] - 4 x[105] - 75 x[106] - 74 x[107] - 23 x[108] - 18 x[109]
   - 35 x[110] - 87 x[111] - 91 x[112] - 5 x[113] - 99 x[114] - 6 x[115]
   - 32 x[116] - 90 x[117] - 99 x[118] - 92 x[119] - 11 x[120] - 12 x[121]
   - 47 x[122] - 36 x[123] - 13 x[124] - 70 x[125] - 14 x[126] - 3 x[127]
   - 85 x[128] - 70 x[129] - 88 x[130] - 32 x[131] - 97 x[132] - 20 x[133]
   - 95 x[134] - 21 x[135] - 58 x[136] - 23 x[137] - 44 x[138] - 43 x[139]
Subject To
 primal_upper: 17 x[0] + 37 x[1] + 91 x[2] + 12 x[3] + 5 x[4] + 35 x[5]
   + 2 x[6] + 93 x[7] + 98 x[8] + 35 x[9] + x[10] + 60 x[11] + 49 x[12]
   + 17 x[13] + 62 x[14] + 54 x[15] + 74 x[16] + 73 x[17] + 30 x[18]
   + 7 x[19] + 94 x[20] + 77 x[21] + 73 x[22] + 56 x[23] + 54 x[24]
   + 53 x[25] + 75 x[26] + 49 x[27] + 51 x[28] + 32 x[29] + 87 x[30]
   + 13 x[31] + 17 x[32] + 86 x[33] + 41 x[34] + 2 x[35] + 57 x[36]
   + 94 x[37] + 37 x[38] + 12 x[39] + 64 x[40] + 83 x[41] + 43 x[42]
   + 35 x[43] + 96 x[44] + 100 x[45] + 91 x[46] + 47 x[47] + 84 x[48]
   + 69 x[49] + 40 x[50] + 37 x[51] + 26 x[52] + 93 x[53] + 70 x[54]
   + 5 x[55] + 30 x[56] + 92 x[57] + 9 x[58] + 63 x[59] + 86 x[60]
   + 100 x[61] + 25 x[62] + 32 x[63] + 13 x[64] + 25 x[65] + 70 x[66]
   + 72 x[67] + 49 x[68] + 83 x[69] + 23 x[70] + 27 x[71] + 55 x[72]
   + 4 x[73] + 93 x[74] + 42 x[75] + 84 x[76] + 12 x[77] + 22 x[78]
   + 88 x[79] + 23 x[80] + 43 x[81] + 40 x[82] + 43 x[83] + 15 x[84]
   + 91 x[85] + x[86] + 81 x[87] + 31 x[88] + 40 x[89] + 78 x[90]
   + 34 x[91] + 6 x[92] + 77 x[93] + 5 x[94] + 70 x[95] + 10 x[96]
   + 74 x[97] + 25 x[98] + 5 x[99] + 98 x[100] + 93 x[101] + 35 x[102]
   + 21 x[103] + 30 x[104] + 23 x[105] + 92 x[106] + 4 x[107] + 28 x[108]
   + 38 x[109] + 68 x[110] + 32 x[111] + 18 x[112] + 90 x[113] + 62 x[114]
   + 36 x[115] + 88 x[116] + 46 x[117] + 6 x[118] + 10 x[119] + 41 x[120]
   + 86 x[121] + 9 x[122] + 68 x[123] + 10 x[124] + 52 x[125] + 85 x[126]
   + 21 x[127] + 20 x[128] + 24 x[129] + 15 x[130] + 50 x[131] + 40 x[132]
   + x[133] + 82 x[134] + 23 x[135] + 46 x[136] + 44 x[137] + 83 x[138]
   + 81 x[139] + 1.7 r[0] + 3.7 r[1] + 9.1 r[2] + 1.2 r[3] + 0.5 r[4]
   + 3.5 r[5] + 0.2 r[6] + 9.3 r[7] + 9.8 r[8] + 3.5 r[9] + 0.1 r[10]
   + 6 r[11] + 4.9 r[12] + 1.7 r[13] + 6.2 r[14] + 5.4 r[15] + 7.4 r[16]
   + 7.3 r[17] + 3 r[18] + 0.7 r[19] + 9.4 r[20] + 7.7 r[21] + 7.3 r[22]
   + 5.6 r[23] + 5.4 r[24] + 5.3 r[25] + 7.5 r[26] + 4.9 r[27] + 5.1 r[28]
   + 3.2 r[29] + 8.7 r[30] + 1.3 r[31] + 1.7 r[32] + 8.6 r[33] + 4.1 r[34]
   + 0.2 r[35] + 5.7 r[36] + 9.4 r[37] + 3.7 r[38] + 1.2 r[39] + 6.4 r[40]
   + 8.3 r[41] + 4.3 r[42] + 3.5 r[43] + 9.6 r[44] + 10 r[45] + 9.1 r[46]
   + 4.7 r[47] + 8.4 r[48] + 6.9 r[49] + 4 r[50] + 3.7 r[51] + 2.6 r[52]
   + 9.3 r[53] + 7 r[54] + 0.5 r[55] + 3 r[56] + 9.2 r[57] + 0.9 r[58]
   + 6.3 r[59] + 8.6 r[60] + 10 r[61] + 2.5 r[62] + 3.2 r[63] + 1.3 r[64]
   + 2.5 r[65] + 7 r[66] + 7.2 r[67] + 4.9 r[68] + 8.3 r[69] + 2.3 r[70]
   + 2.7 r[71] + 5.5 r[72] + 0.4 r[73] + 9.3 r[74] + 4.2 r[75] + 8.4 r[76]
   + 1.2 r[77] + 2.2 r[78] + 8.8 r[79] + 2.3 r[80] + 4.3 r[81] + 4 r[82]
   + 4.3 r[83] + 1.5 r[84] + 9.1 r[85] + 0.1 r[86] + 8.1 r[87] + 3.1 r[88]
   + 4 r[89] + 7.8 r[90] + 3.4 r[91] + 0.6 r[92] + 7.7 r[93] + 0.5 r[94]
   + 7 r[95] + r[96] + 7.4 r[97] + 2.5 r[98] + 0.5 r[99] + 9.8 r[100]
   + 9.3 r[101] + 3.5 r[102] + 2.1 r[103] + 3 r[104] + 2.3 r[105]
   + 9.2 r[106] + 0.4 r[107] + 2.8 r[108] + 3.8 r[109] + 6.8 r[110]
   + 3.2 r[111] + 1.8 r[112] + 9 r[113] + 6.2 r[114] + 3.6 r[115]
   + 8.8 r[116] + 4.6 r[117] + 0.6 r[118] + r[119] + 4.1 r[120]
   + 8.6 r[121] + 0.9 r[122] + 6.8 r[123] + r[124] + 5.2 r[125]
   + 8.5 r[126] + 2.1 r[127] + 2 r[128] + 2.4 r[129] + 1.5 r[130]
   + 5 r[131] + 4 r[132] + 0.1 r[133] + 8.2 r[134] + 2.3 r[135]
   + 4.6 r[136] + 4.4 r[137] + 8.3 r[138] + 8.1 r[139] <= 636
 primal_lower: 2.747257890200269 x[0] + 4.891791931468872 x[1]
   + 3.259076057259067 x[2] + 0.1190847758942836 x[3]
   + 4.481637931794338 x[4] + 3.067365733244813 x[5]
   + 4.418028866741976 x[6] + 3.558538803054482 x[7]
   + 1.026465035736305 x[8] + 0.6271902635599488 x[9]
   + 1.719290463062897 x[10] + 3.403234599456454 x[11]
   + 4.512185385733605 x[12] + 4.676192548020531 x[13]
   + 4.541261523477101 x[14] + 2.161096533641429 x[15]
   + 3.30552254566097 x[16] + 4.186041586715943 x[17]
   + 1.519098145142259 x[18] + 3.497396364395951 x[19]
   + 2.856264904726294 x[20] + 4.471900904582317 x[21]
   + 2.278820897436798 x[22] + 2.472095350663268 x[23]
   + 0.1844851222132333 x[24] + 0.5747333017134372 x[25]
   + 2.841607271189602 x[26] + 3.184747585463168 x[27]
   + 0.769653192178088 x[28] + 1.038055539269628 x[29]
   + 0.8044204407131199 x[30] + 3.488630003899015 x[31]
   + 1.85504978805459 x[32] + 1.039454114976041 x[33]
   + 2.754030579756414 x[34] + 0.2574848728336539 x[35]
   + 0.1166912738325936 x[36] + 0.0950789147550676 x[37]
   + 4.541984012656452 x[38] + 0.2848182102182024 x[39]
   + 4.749919099217368 x[40] + 4.152640540482069 x[41]
   + 4.802572263861546 x[42] + 4.203459758117324 x[43]
   + 1.26667526436298 x[44] + 1.66909888862446 x[45]
   + 1.552921702388958 x[46] + 1.449953395380511 x[47]
   + 2.892363163633364 x[48] + 1.59832901516225 x[49]
   + 1.924869817537777 x[50] + 5.022345399924464 x[51]
   + 3.56640009225958 x[52] + 1.855611864144927 x[53]
   + 1.552923403682393 x[54] + 4.08169318601349 x[55]
   + 3.925069039663181 x[56] + 3.549465486839532 x[57]
   + 1.198431760573414 x[58] + 4.864378885067002 x[59]
   + 2.415099479732667 x[60] + 2.537727665817636 x[61]
   + 1.120603811585485 x[62] + 4.300940350397911 x[63]
   + 3.608227763277609 x[64] + 2.52520603661512 x[65]
   + 2.589579672121946 x[66] + 5.03014569596376 x[67]
   + 2.690973295920097 x[68] + 1.196403668505178 x[69]
   + 2.179101911955321 x[70] + 1.865597447123897 x[71]
   + 3.191214785522393 x[72] + 4.877561900667964 x[73]
   + 0.3110478561354884 x[74] + 3.148573801691215 x[75]
   + 2.530820808882394 x[76] + 0.4477548062506643 x[77]
   + 0.3273393924280165 x[78] + 2.975439024738256 x[79]
   + 4.864029374367613 x[80] + 0.8527966100008608 x[81]
   + 2.294962719678046 x[82] + 3.456573438621202 x[83]
   + 4.161648178451948 x[84] + 2.70740495420164 x[85]
   + 2.973449514167771 x[86] + 2.771987699231147 x[87]
   + 5.032224460127829 x[88] + 1.135500182005 x[89]
   + 2.443101442449921 x[90] + 6.5621663060317758e-04 x[91]
   + 2.908625149854012 x[92] + 2.237748652162864 x[93]
   + 2.881989203017631 x[94] + 3.376973222407575 x[95]
   + 1.868757648817432 x[96] + 1.902767410445571 x[97]
   + 4.776615373092478 x[98] + 5.027665373472965 x[99]
   + 2.956750233130995 x[100] + 4.57490298896771 x[101]
   + 0.5074746642650844 x[102] + 1.556950429651181 x[103]
   + 0.5778757683247709 x[104] + 3.420537956549915 x[105]
   + 3.570847634268625 x[106] + 4.801340809505962 x[107]
   + 2.985047402232026 x[108] + 4.854559329805931 x[109]
   + 3.751225612259399 x[110] + 0.1980842517575746 x[111]
   + 2.157350272375977 x[112] + 4.614133395275227 x[113]
   + 0.9590679704740191 x[114] + 0.0831253637933348 x[115]
   + 2.675699840982341 x[116] + 3.402671447782506 x[117]
   + 4.920614214562367 x[118] + 4.577663272213383 x[119]
   + 3.187360903942451 x[120] + 2.444431693990381 x[121]
   + 1.288848098734795 x[122] + 4.549470504225912 x[123]
   + 3.263380686160746 x[124] + 4.171298500274414 x[125]
   + 3.856694548361096 x[126] + 1.33341118986361 x[127]
   + 2.349388680252068 x[128] + 1.653638793010118 x[129]
   + 3.33843638319536 x[130] + 4.252080076735493 x[131]
   + 2.89811013344546 x[132] + 2.775958780538959 x[133]
   + 2.133651751834181 x[134] + 4.130084111253603 x[135]
   + 3.681040118283241 x[136] + 0.0141209117402943 x[137]
   + 0.9334634625337118 x[138] + 2.265517264890351 x[139] + 88 u[0]
   + 49 u[1] + 7 u[2] + 92 u[3] + 93 u[4] + 42 u[5] + 98 u[6] + 36 u[7]
   + 86 u[8] + 27 u[9] + 64 u[10] + 44 u[11] + 85 u[12] + 49 u[13]
   + 93 u[14] + 53 u[15] + 82 u[16] + 73 u[17] + 50 u[18] + 55 u[19]
   + 58 u[20] + 44 u[21] + 85 u[22] + 39 u[23] + 61 u[24] + 37 u[25]
   + 63 u[26] + 84 u[27] + 10 u[28] + 36 u[29] + 54 u[30] + 24 u[31]
   + 60 u[32] + 10 u[33] + 57 u[34] + 42 u[35] + 69 u[36] + 21 u[37]
   + 29 u[38] + 47 u[39] + 36 u[40] + 18 u[41] + 51 u[42] + 38 u[43]
   + 28 u[44] + 55 u[45] + 26 u[46] + 94 u[47] + 64 u[48] + 21 u[49]
   + 75 u[50] + 45 u[51] + 94 u[52] + 89 u[53] + 61 u[54] + 4 u[55]
   + 14 u[56] + 23 u[57] + 85 u[58] + 63 u[59] + 29 u[60] + 95 u[61]
   + 88 u[62] + 83 u[63] + 72 u[64] + 65 u[65] + 69 u[66] + 55 u[67]
   + 5 u[68] + 50 u[69] + 78 u[70] + 82 u[71] + 3 u[72] + 36 u[73]
   + 64 u[74] + 41 u[75] + 3 u[76] + 32 u[77] + 73 u[78] + 79 u[79]
   + 54 u[80] + 98 u[81] + 67 u[82] + 82 u[83] + 86 u[84] + 62 u[85]
   + 60 u[86] + 21 u[87] + 3 u[88] + 80 u[89] + 97 u[90] + 25 u[91]
   + 89 u[92] + 4 u[93] + 97 u[94] + 34 u[95] + 94 u[96] + 5 u[97]
   + 57 u[98] + 53 u[99] + 66 u[100] + 33 u[101] + 39 u[102] + 49 u[103]
   + 74 u[104] + 67 u[105] + 60 u[106] + 55 u[107] + 91 u[108] + 46 u[109]
   + 59 u[110] + 72 u[111] + 6 u[112] + 42 u[113] + 6 u[114] + 11 u[115]
   + 12 u[116] + 34 u[117] + 6 u[118] + 57 u[119] + 4 u[120] + 21 u[121]
   + 96 u[122] + 55 u[123] + 94 u[124] + 71 u[125] + 68 u[126] + 32 u[127]
   + 87 u[128] + 12 u[129] + 82 u[130] + 62 u[131] + 19 u[132] + 49 u[133]
   + 85 u[134] + 7 u[135] + 82 u[136] + 35 u[137] + 58 u[138] + 61 u[139]
   <= 53823
 mccormick1[0]: - u[0] + r[0] <= 0
 mccormick1[1]: - u[1] + r[1] <= 0
 mccormick1[2]: - u[2] + r[2] <= 0
 mccormick1[3]: - u[3] + r[3] <= 0
 mccormick1[4]: - u[4] + r[4] <= 0
 mccormick1[5]: - u[5] + r[5] <= 0
 mccormick1[6]: - u[6] + r[6] <= 0
 mccormick1[7]: - u[7] + r[7] <= 0
 mccormick1[8]: - u[8] + r[8] <= 0
 mccormick1[9]: - u[9] + r[9] <= 0
 mccormick1[10]: - u[10] + r[10] <= 0
 mccormick1[11]: - u[11] + r[11] <= 0
 mccormick1[12]: - u[12] + r[12] <= 0
 mccormick1[13]: - u[13] + r[13] <= 0
 mccormick1[14]: - u[14] + r[14] <= 0
 mccormick1[15]: - u[15] + r[15] <= 0
 mccormick1[16]: - u[16] + r[16] <= 0
 mccormick1[17]: - u[17] + r[17] <= 0
 mccormick1[18]: - u[18] + r[18] <= 0
 mccormick1[19]: - u[19] + r[19] <= 0
 mccormick1[20]: - u[20] + r[20] <= 0
 mccormick1[21]: - u[21] + r[21] <= 0
 mccormick1[22]: - u[22] + r[22] <= 0
 mccormick1[23]: - u[23] + r[23] <= 0
 mccormick1[24]: - u[24] + r[24] <= 0
 mccormick1[25]: - u[25] + r[25] <= 0
 mccormick1[26]: - u[26] + r[26] <= 0
 mccormick1[27]: - u[27] + r[27] <= 0
 mccormick1[28]: - u[28] + r[28] <= 0
 mccormick1[29]: - u[29] + r[29] <= 0
 mccormick1[30]: - u[30] + r[30] <= 0
 mccormick1[31]: - u[31] + r[31] <= 0
 mccormick1[32]: - u[32] + r[32] <= 0
 mccormick1[33]: - u[33] + r[33] <= 0
 mccormick1[34]: - u[34] + r[34] <= 0
 mccormick1[35]: - u[35] + r[35] <= 0
 mccormick1[36]: - u[36] + r[36] <= 0
 mccormick1[37]: - u[37] + r[37] <= 0
 mccormick1[38]: - u[38] + r[38] <= 0
 mccormick1[39]: - u[39] + r[39] <= 0
 mccormick1[40]: - u[40] + r[40] <= 0
 mccormick1[41]: - u[41] + r[41] <= 0
 mccormick1[42]: - u[42] + r[42] <= 0
 mccormick1[43]: - u[43] + r[43] <= 0
 mccormick1[44]: - u[44] + r[44] <= 0
 mccormick1[45]: - u[45] + r[45] <= 0
 mccormick1[46]: - u[46] + r[46] <= 0
 mccormick1[47]: - u[47] + r[47] <= 0
 mccormick1[48]: - u[48] + r[48] <= 0
 mccormick1[49]: - u[49] + r[49] <= 0
 mccormick1[50]: - u[50] + r[50] <= 0
 mccormick1[51]: - u[51] + r[51] <= 0
 mccormick1[52]: - u[52] + r[52] <= 0
 mccormick1[53]: - u[53] + r[53] <= 0
 mccormick1[54]: - u[54] + r[54] <= 0
 mccormick1[55]: - u[55] + r[55] <= 0
 mccormick1[56]: - u[56] + r[56] <= 0
 mccormick1[57]: - u[57] + r[57] <= 0
 mccormick1[58]: - u[58] + r[58] <= 0
 mccormick1[59]: - u[59] + r[59] <= 0
 mccormick1[60]: - u[60] + r[60] <= 0
 mccormick1[61]: - u[61] + r[61] <= 0
 mccormick1[62]: - u[62] + r[62] <= 0
 mccormick1[63]: - u[63] + r[63] <= 0
 mccormick1[64]: - u[64] + r[64] <= 0
 mccormick1[65]: - u[65] + r[65] <= 0
 mccormick1[66]: - u[66] + r[66] <= 0
 mccormick1[67]: - u[67] + r[67] <= 0
 mccormick1[68]: - u[68] + r[68] <= 0
 mccormick1[69]: - u[69] + r[69] <= 0
 mccormick1[70]: - u[70] + r[70] <= 0
 mccormick1[71]: - u[71] + r[71] <= 0
 mccormick1[72]: - u[72] + r[72] <= 0
 mccormick1[73]: - u[73] + r[73] <= 0
 mccormick1[74]: - u[74] + r[74] <= 0
 mccormick1[75]: - u[75] + r[75] <= 0
 mccormick1[76]: - u[76] + r[76] <= 0
 mccormick1[77]: - u[77] + r[77] <= 0
 mccormick1[78]: - u[78] + r[78] <= 0
 mccormick1[79]: - u[79] + r[79] <= 0
 mccormick1[80]: - u[80] + r[80] <= 0
 mccormick1[81]: - u[81] + r[81] <= 0
 mccormick1[82]: - u[82] + r[82] <= 0
 mccormick1[83]: - u[83] + r[83] <= 0
 mccormick1[84]: - u[84] + r[84] <= 0
 mccormick1[85]: - u[85] + r[85] <= 0
 mccormick1[86]: - u[86] + r[86] <= 0
 mccormick1[87]: - u[87] + r[87] <= 0
 mccormick1[88]: - u[88] + r[88] <= 0
 mccormick1[89]: - u[89] + r[89] <= 0
 mccormick1[90]: - u[90] + r[90] <= 0
 mccormick1[91]: - u[91] + r[91] <= 0
 mccormick1[92]: - u[92] + r[92] <= 0
 mccormick1[93]: - u[93] + r[93] <= 0
 mccormick1[94]: - u[94] + r[94] <= 0
 mccormick1[95]: - u[95] + r[95] <= 0
 mccormick1[96]: - u[96] + r[96] <= 0
 mccormick1[97]: - u[97] + r[97] <= 0
 mccormick1[98]: - u[98] + r[98] <= 0
 mccormick1[99]: - u[99] + r[99] <= 0
 mccormick1[100]: - u[100] + r[100] <= 0
 mccormick1[101]: - u[101] + r[101] <= 0
 mccormick1[102]: - u[102] + r[102] <= 0
 mccormick1[103]: - u[103] + r[103] <= 0
 mccormick1[104]: - u[104] + r[104] <= 0
 mccormick1[105]: - u[105] + r[105] <= 0
 mccormick1[106]: - u[106] + r[106] <= 0
 mccormick1[107]: - u[107] + r[107] <= 0
 mccormick1[108]: - u[108] + r[108] <= 0
 mccormick1[109]: - u[109] + r[109] <= 0
 mccormick1[110]: - u[110] + r[110] <= 0
 mccormick1[111]: - u[111] + r[111] <= 0
 mccormick1[112]: - u[112] + r[112] <= 0
 mccormick1[113]: - u[113] + r[113] <= 0
 mccormick1[114]: - u[114] + r[114] <= 0
 mccormick1[115]: - u[115] + r[115] <= 0
 mccormick1[116]: - u[116] + r[116] <= 0
 mccormick1[117]: - u[117] + r[117] <= 0
 mccormick1[118]: - u[118] + r[118] <= 0
 mccormick1[119]: - u[119] + r[119] <= 0
 mccormick1[120]: - u[120] + r[120] <= 0
 mccormick1[121]: - u[121] + r[121] <= 0
 mccormick1[122]: - u[122] + r[122] <= 0
 mccormick1[123]: - u[123] + r[123] <= 0
 mccormick1[124]: - u[124] + r[124] <= 0
 mccormick1[125]: - u[125] + r[125] <= 0
 mccormick1[126]: - u[126] + r[126] <= 0
 mccormick1[127]: - u[127] + r[127] <= 0
 mccormick1[128]: - u[128] + r[128] <= 0
 mccormick1[129]: - u[129] + r[129] <= 0
 mccormick1[130]: - u[130] + r[130] <= 0
 mccormick1[131]: - u[131] + r[131] <= 0
 mccormick1[132]: - u[132] + r[132] <= 0
 mccormick1[133]: - u[133] + r[133] <= 0
 mccormick1[134]: - u[134] + r[134] <= 0
 mccormick1[135]: - u[135] + r[135] <= 0
 mccormick1[136]: - u[136] + r[136] <= 0
 mccormick1[137]: - u[137] + r[137] <= 0
 mccormick1[138]: - u[138] + r[138] <= 0
 mccormick1[139]: - u[139] + r[139] <= 0
 mccormick2[0]: - x[0] + r[0] <= 0
 mccormick2[1]: - x[1] + r[1] <= 0
 mccormick2[2]: - x[2] + r[2] <= 0
 mccormick2[3]: - x[3] + r[3] <= 0
 mccormick2[4]: - x[4] + r[4] <= 0
 mccormick2[5]: - x[5] + r[5] <= 0
 mccormick2[6]: - x[6] + r[6] <= 0
 mccormick2[7]: - x[7] + r[7] <= 0
 mccormick2[8]: - x[8] + r[8] <= 0
 mccormick2[9]: - x[9] + r[9] <= 0
 mccormick2[10]: - x[10] + r[10] <= 0
 mccormick2[11]: - x[11] + r[11] <= 0
 mccormick2[12]: - x[12] + r[12] <= 0
 mccormick2[13]: - x[13] + r[13] <= 0
 mccormick2[14]: - x[14] + r[14] <= 0
 mccormick2[15]: - x[15] + r[15] <= 0
 mccormick2[16]: - x[16] + r[16] <= 0
 mccormick2[17]: - x[17] + r[17] <= 0
 mccormick2[18]: - x[18] + r[18] <= 0
 mccormick2[19]: - x[19] + r[19] <= 0
 mccormick2[20]: - x[20] + r[20] <= 0
 mccormick2[21]: - x[21] + r[21] <= 0
 mccormick2[22]: - x[22] + r[22] <= 0
 mccormick2[23]: - x[23] + r[23] <= 0
 mccormick2[24]: - x[24] + r[24] <= 0
 mccormick2[25]: - x[25] + r[25] <= 0
 mccormick2[26]: - x[26] + r[26] <= 0
 mccormick2[27]: - x[27] + r[27] <= 0
 mccormick2[28]: - x[28] + r[28] <= 0
 mccormick2[29]: - x[29] + r[29] <= 0
 mccormick2[30]: - x[30] + r[30] <= 0
 mccormick2[31]: - x[31] + r[31] <= 0
 mccormick2[32]: - x[32] + r[32] <= 0
 mccormick2[33]: - x[33] + r[33] <= 0
 mccormick2[34]: - x[34] + r[34] <= 0
 mccormick2[35]: - x[35] + r[35] <= 0
 mccormick2[36]: - x[36] + r[36] <= 0
 mccormick2[37]: - x[37] + r[37] <= 0
 mccormick2[38]: - x[38] + r[38] <= 0
 mccormick2[39]: - x[39] + r[39] <= 0
 mccormick2[40]: - x[40] + r[40] <= 0
 mccormick2[41]: - x[41] + r[41] <= 0
 mccormick2[42]: - x[42] + r[42] <= 0
 mccormick2[43]: - x[43] + r[43] <= 0
 mccormick2[44]: - x[44] + r[44] <= 0
 mccormick2[45]: - x[45] + r[45] <= 0
 mccormick2[46]: - x[46] + r[46] <= 0
 mccormick2[47]: - x[47] + r[47] <= 0
 mccormick2[48]: - x[48] + r[48] <= 0
 mccormick2[49]: - x[49] + r[49] <= 0
 mccormick2[50]: - x[50] + r[50] <= 0
 mccormick2[51]: - x[51] + r[51] <= 0
 mccormick2[52]: - x[52] + r[52] <= 0
 mccormick2[53]: - x[53] + r[53] <= 0
 mccormick2[54]: - x[54] + r[54] <= 0
 mccormick2[55]: - x[55] + r[55] <= 0
 mccormick2[56]: - x[56] + r[56] <= 0
 mccormick2[57]: - x[57] + r[57] <= 0
 mccormick2[58]: - x[58] + r[58] <= 0
 mccormick2[59]: - x[59] + r[59] <= 0
 mccormick2[60]: - x[60] + r[60] <= 0
 mccormick2[61]: - x[61] + r[61] <= 0
 mccormick2[62]: - x[62] + r[62] <= 0
 mccormick2[63]: - x[63] + r[63] <= 0
 mccormick2[64]: - x[64] + r[64] <= 0
 mccormick2[65]: - x[65] + r[65] <= 0
 mccormick2[66]: - x[66] + r[66] <= 0
 mccormick2[67]: - x[67] + r[67] <= 0
 mccormick2[68]: - x[68] + r[68] <= 0
 mccormick2[69]: - x[69] + r[69] <= 0
 mccormick2[70]: - x[70] + r[70] <= 0
 mccormick2[71]: - x[71] + r[71] <= 0
 mccormick2[72]: - x[72] + r[72] <= 0
 mccormick2[73]: - x[73] + r[73] <= 0
 mccormick2[74]: - x[74] + r[74] <= 0
 mccormick2[75]: - x[75] + r[75] <= 0
 mccormick2[76]: - x[76] + r[76] <= 0
 mccormick2[77]: - x[77] + r[77] <= 0
 mccormick2[78]: - x[78] + r[78] <= 0
 mccormick2[79]: - x[79] + r[79] <= 0
 mccormick2[80]: - x[80] + r[80] <= 0
 mccormick2[81]: - x[81] + r[81] <= 0
 mccormick2[82]: - x[82] + r[82] <= 0
 mccormick2[83]: - x[83] + r[83] <= 0
 mccormick2[84]: - x[84] + r[84] <= 0
 mccormick2[85]: - x[85] + r[85] <= 0
 mccormick2[86]: - x[86] + r[86] <= 0
 mccormick2[87]: - x[87] + r[87] <= 0
 mccormick2[88]: - x[88] + r[88] <= 0
 mccormick2[89]: - x[89] + r[89] <= 0
 mccormick2[90]: - x[90] + r[90] <= 0
 mccormick2[91]: - x[91] + r[91] <= 0
 mccormick2[92]: - x[92] + r[92] <= 0
 mccormick2[93]: - x[93] + r[93] <= 0
 mccormick2[94]: - x[94] + r[94] <= 0
 mccormick2[95]: - x[95] + r[95] <= 0
 mccormick2[96]: - x[96] + r[96] <= 0
 mccormick2[97]: - x[97] + r[97] <= 0
 mccormick2[98]: - x[98] + r[98] <= 0
 mccormick2[99]: - x[99] + r[99] <= 0
 mccormick2[100]: - x[100] + r[100] <= 0
 mccormick2[101]: - x[101] + r[101] <= 0
 mccormick2[102]: - x[102] + r[102] <= 0
 mccormick2[103]: - x[103] + r[103] <= 0
 mccormick2[104]: - x[104] + r[104] <= 0
 mccormick2[105]: - x[105] + r[105] <= 0
 mccormick2[106]: - x[106] + r[106] <= 0
 mccormick2[107]: - x[107] + r[107] <= 0
 mccormick2[108]: - x[108] + r[108] <= 0
 mccormick2[109]: - x[109] + r[109] <= 0
 mccormick2[110]: - x[110] + r[110] <= 0
 mccormick2[111]: - x[111] + r[111] <= 0
 mccormick2[112]: - x[112] + r[112] <= 0
 mccormick2[113]: - x[113] + r[113] <= 0
 mccormick2[114]: - x[114] + r[114] <= 0
 mccormick2[115]: - x[115] + r[115] <= 0
 mccormick2[116]: - x[116] + r[116] <= 0
 mccormick2[117]: - x[117] + r[117] <= 0
 mccormick2[118]: - x[118] + r[118] <= 0
 mccormick2[119]: - x[119] + r[119] <= 0
 mccormick2[120]: - x[120] + r[120] <= 0
 mccormick2[121]: - x[121] + r[121] <= 0
 mccormick2[122]: - x[122] + r[122] <= 0
 mccormick2[123]: - x[123] + r[123] <= 0
 mccormick2[124]: - x[124] + r[124] <= 0
 mccormick2[125]: - x[125] + r[125] <= 0
 mccormick2[126]: - x[126] + r[126] <= 0
 mccormick2[127]: - x[127] + r[127] <= 0
 mccormick2[128]: - x[128] + r[128] <= 0
 mccormick2[129]: - x[129] + r[129] <= 0
 mccormick2[130]: - x[130] + r[130] <= 0
 mccormick2[131]: - x[131] + r[131] <= 0
 mccormick2[132]: - x[132] + r[132] <= 0
 mccormick2[133]: - x[133] + r[133] <= 0
 mccormick2[134]: - x[134] + r[134] <= 0
 mccormick2[135]: - x[135] + r[135] <= 0
 mccormick2[136]: - x[136] + r[136] <= 0
 mccormick2[137]: - x[137] + r[137] <= 0
 mccormick2[138]: - x[138] + r[138] <= 0
 mccormick2[139]: - x[139] + r[139] <= 0
 mccormick3[0]: x[0] + u[0] - r[0] <= 1
 mccormick3[1]: x[1] + u[1] - r[1] <= 1
 mccormick3[2]: x[2] + u[2] - r[2] <= 1
 mccormick3[3]: x[3] + u[3] - r[3] <= 1
 mccormick3[4]: x[4] + u[4] - r[4] <= 1
 mccormick3[5]: x[5] + u[5] - r[5] <= 1
 mccormick3[6]: x[6] + u[6] - r[6] <= 1
 mccormick3[7]: x[7] + u[7] - r[7] <= 1
 mccormick3[8]: x[8] + u[8] - r[8] <= 1
 mccormick3[9]: x[9] + u[9] - r[9] <= 1
 mccormick3[10]: x[10] + u[10] - r[10] <= 1
 mccormick3[11]: x[11] + u[11] - r[11] <= 1
 mccormick3[12]: x[12] + u[12] - r[12] <= 1
 mccormick3[13]: x[13] + u[13] - r[13] <= 1
 mccormick3[14]: x[14] + u[14] - r[14] <= 1
 mccormick3[15]: x[15] + u[15] - r[15] <= 1
 mccormick3[16]: x[16] + u[16] - r[16] <= 1
 mccormick3[17]: x[17] + u[17] - r[17] <= 1
 mccormick3[18]: x[18] + u[18] - r[18] <= 1
 mccormick3[19]: x[19] + u[19] - r[19] <= 1
 mccormick3[20]: x[20] + u[20] - r[20] <= 1
 mccormick3[21]: x[21] + u[21] - r[21] <= 1
 mccormick3[22]: x[22] + u[22] - r[22] <= 1
 mccormick3[23]: x[23] + u[23] - r[23] <= 1
 mccormick3[24]: x[24] + u[24] - r[24] <= 1
 mccormick3[25]: x[25] + u[25] - r[25] <= 1
 mccormick3[26]: x[26] + u[26] - r[26] <= 1
 mccormick3[27]: x[27] + u[27] - r[27] <= 1
 mccormick3[28]: x[28] + u[28] - r[28] <= 1
 mccormick3[29]: x[29] + u[29] - r[29] <= 1
 mccormick3[30]: x[30] + u[30] - r[30] <= 1
 mccormick3[31]: x[31] + u[31] - r[31] <= 1
 mccormick3[32]: x[32] + u[32] - r[32] <= 1
 mccormick3[33]: x[33] + u[33] - r[33] <= 1
 mccormick3[34]: x[34] + u[34] - r[34] <= 1
 mccormick3[35]: x[35] + u[35] - r[35] <= 1
 mccormick3[36]: x[36] + u[36] - r[36] <= 1
 mccormick3[37]: x[37] + u[37] - r[37] <= 1
 mccormick3[38]: x[38] + u[38] - r[38] <= 1
 mccormick3[39]: x[39] + u[39] - r[39] <= 1
 mccormick3[40]: x[40] + u[40] - r[40] <= 1
 mccormick3[41]: x[41] + u[41] - r[41] <= 1
 mccormick3[42]: x[42] + u[42] - r[42] <= 1
 mccormick3[43]: x[43] + u[43] - r[43] <= 1
 mccormick3[44]: x[44] + u[44] - r[44] <= 1
 mccormick3[45]: x[45] + u[45] - r[45] <= 1
 mccormick3[46]: x[46] + u[46] - r[46] <= 1
 mccormick3[47]: x[47] + u[47] - r[47] <= 1
 mccormick3[48]: x[48] + u[48] - r[48] <= 1
 mccormick3[49]: x[49] + u[49] - r[49] <= 1
 mccormick3[50]: x[50] + u[50] - r[50] <= 1
 mccormick3[51]: x[51] + u[51] - r[51] <= 1
 mccormick3[52]: x[52] + u[52] - r[52] <= 1
 mccormick3[53]: x[53] + u[53] - r[53] <= 1
 mccormick3[54]: x[54] + u[54] - r[54] <= 1
 mccormick3[55]: x[55] + u[55] - r[55] <= 1
 mccormick3[56]: x[56] + u[56] - r[56] <= 1
 mccormick3[57]: x[57] + u[57] - r[57] <= 1
 mccormick3[58]: x[58] + u[58] - r[58] <= 1
 mccormick3[59]: x[59] + u[59] - r[59] <= 1
 mccormick3[60]: x[60] + u[60] - r[60] <= 1
 mccormick3[61]: x[61] + u[61] - r[61] <= 1
 mccormick3[62]: x[62] + u[62] - r[62] <= 1
 mccormick3[63]: x[63] + u[63] - r[63] <= 1
 mccormick3[64]: x[64] + u[64] - r[64] <= 1
 mccormick3[65]: x[65] + u[65] - r[65] <= 1
 mccormick3[66]: x[66] + u[66] - r[66] <= 1
 mccormick3[67]: x[67] + u[67] - r[67] <= 1
 mccormick3[68]: x[68] + u[68] - r[68] <= 1
 mccormick3[69]: x[69] + u[69] - r[69] <= 1
 mccormick3[70]: x[70] + u[70] - r[70] <= 1
 mccormick3[71]: x[71] + u[71] - r[71] <= 1
 mccormick3[72]: x[72] + u[72] - r[72] <= 1
 mccormick3[73]: x[73] + u[73] - r[73] <= 1
 mccormick3[74]: x[74] + u[74] - r[74] <= 1
 mccormick3[75]: x[75] + u[75] - r[75] <= 1
 mccormick3[76]: x[76] + u[76] - r[76] <= 1
 mccormick3[77]: x[77] + u[77] - r[77] <= 1
 mccormick3[78]: x[78] + u[78] - r[78] <= 1
 mccormick3[79]: x[79] + u[79] - r[79] <= 1
 mccormick3[80]: x[80] + u[80] - r[80] <= 1
 mccormick3[81]: x[81] + u[81] - r[81] <= 1
 mccormick3[82]: x[82] + u[82] - r[82] <= 1
 mccormick3[83]: x[83] + u[83] - r[83] <= 1
 mccormick3[84]: x[84] + u[84] - r[84] <= 1
 mccormick3[85]: x[85] + u[85] - r[85] <= 1
 mccormick3[86]: x[86] + u[86] - r[86] <= 1
 mccormick3[87]: x[87] + u[87] - r[87] <= 1
 mccormick3[88]: x[88] + u[88] - r[88] <= 1
 mccormick3[89]: x[89] + u[89] - r[89] <= 1
 mccormick3[90]: x[90] + u[90] - r[90] <= 1
 mccormick3[91]: x[91] + u[91] - r[91] <= 1
 mccormick3[92]: x[92] + u[92] - r[92] <= 1
 mccormick3[93]: x[93] + u[93] - r[93] <= 1
 mccormick3[94]: x[94] + u[94] - r[94] <= 1
 mccormick3[95]: x[95] + u[95] - r[95] <= 1
 mccormick3[96]: x[96] + u[96] - r[96] <= 1
 mccormick3[97]: x[97] + u[97] - r[97] <= 1
 mccormick3[98]: x[98] + u[98] - r[98] <= 1
 mccormick3[99]: x[99] + u[99] - r[99] <= 1
 mccormick3[100]: x[100] + u[100] - r[100] <= 1
 mccormick3[101]: x[101] + u[101] - r[101] <= 1
 mccormick3[102]: x[102] + u[102] - r[102] <= 1
 mccormick3[103]: x[103] + u[103] - r[103] <= 1
 mccormick3[104]: x[104] + u[104] - r[104] <= 1
 mccormick3[105]: x[105] + u[105] - r[105] <= 1
 mccormick3[106]: x[106] + u[106] - r[106] <= 1
 mccormick3[107]: x[107] + u[107] - r[107] <= 1
 mccormick3[108]: x[108] + u[108] - r[108] <= 1
 mccormick3[109]: x[109] + u[109] - r[109] <= 1
 mccormick3[110]: x[110] + u[110] - r[110] <= 1
 mccormick3[111]: x[111] + u[111] - r[111] <= 1
 mccormick3[112]: x[112] + u[112] - r[112] <= 1
 mccormick3[113]: x[113] + u[113] - r[113] <= 1
 mccormick3[114]: x[114] + u[114] - r[114] <= 1
 mccormick3[115]: x[115] + u[115] - r[115] <= 1
 mccormick3[116]: x[116] + u[116] - r[116] <= 1
 mccormick3[117]: x[117] + u[117] - r[117] <= 1
 mccormick3[118]: x[118] + u[118] - r[118] <= 1
 mccormick3[119]: x[119] + u[119] - r[119] <= 1
 mccormick3[120]: x[120] + u[120] - r[120] <= 1
 mccormick3[121]: x[121] + u[121] - r[121] <= 1
 mccormick3[122]: x[122] + u[122] - r[122] <= 1
 mccormick3[123]: x[123] + u[123] - r[123] <= 1
 mccormick3[124]: x[124] + u[124] - r[124] <= 1
 mccormick3[125]: x[125] + u[125] - r[125] <= 1
 mccormick3[126]: x[126] + u[126] - r[126] <= 1
 mccormick3[127]: x[127] + u[127] - r[127] <= 1
 mccormick3[128]: x[128] + u[128] - r[128] <= 1
 mccormick3[129]: x[129] + u[129] - r[129] <= 1
 mccormick3[130]: x[130] + u[130] - r[130] <= 1
 mccormick3[131]: x[131] + u[131] - r[131] <= 1
 mccormick3[132]: x[132] + u[132] - r[132] <= 1
 mccormick3[133]: x[133] + u[133] - r[133] <= 1
 mccormick3[134]: x[134] + u[134] - r[134] <= 1
 mccormick3[135]: x[135] + u[135] - r[135] <= 1
 mccormick3[136]: x[136] + u[136] - r[136] <= 1
 mccormick3[137]: x[137] + u[137] - r[137] <= 1
 mccormick3[138]: x[138] + u[138] - r[138] <= 1
 mccormick3[139]: x[139] + u[139] - r[139] <= 1
Bounds
Binaries
 x[0] x[1] x[2] x[3] x[4] x[5] x[6] x[7] x[8] x[9] x[10] x[11] x[12] x[13]
 x[14] x[15] x[16] x[17] x[18] x[19] x[20] x[21] x[22] x[23] x[24] x[25]
 x[26] x[27] x[28] x[29] x[30] x[31] x[32] x[33] x[34] x[35] x[36] x[37]
 x[38] x[39] x[40] x[41] x[42] x[43] x[44] x[45] x[46] x[47] x[48] x[49]
 x[50] x[51] x[52] x[53] x[54] x[55] x[56] x[57] x[58] x[59] x[60] x[61]
 x[62] x[63] x[64] x[65] x[66] x[67] x[68] x[69] x[70] x[71] x[72] x[73]
 x[74] x[75] x[76] x[77] x[78] x[79] x[80] x[81] x[82] x[83] x[84] x[85]
 x[86] x[87] x[88] x[89] x[90] x[91] x[92] x[93] x[94] x[95] x[96] x[97]
 x[98] x[99] x[100] x[101] x[102] x[103] x[104] x[105] x[106] x[107] x[108]
 x[109] x[110] x[111] x[112] x[113] x[114] x[115] x[116] x[117] x[118]
 x[119] x[120] x[121] x[122] x[123] x[124] x[125] x[126] x[127] x[128]
 x[129] x[130] x[131] x[132] x[133] x[134] x[135] x[136] x[137] x[138]
 x[139] u[0] u[1] u[2] u[3] u[4] u[5] u[6] u[7] u[8] u[9] u[10] u[11] u[12]
 u[13] u[14] u[15] u[16] u[17] u[18] u[19] u[20] u[21] u[22] u[23] u[24]
 u[25] u[26] u[27] u[28] u[29] u[30] u[31] u[32] u[33] u[34] u[35] u[36]
 u[37] u[38] u[39] u[40] u[41] u[42] u[43] u[44] u[45] u[46] u[47] u[48]
 u[49] u[50] u[51] u[52] u[53] u[54] u[55] u[56] u[57] u[58] u[59] u[60]
 u[61] u[62] u[63] u[64] u[65] u[66] u[67] u[68] u[69] u[70] u[71] u[72]
 u[73] u[74] u[75] u[76] u[77] u[78] u[79] u[80] u[81] u[82] u[83] u[84]
 u[85] u[86] u[87] u[88] u[89] u[90] u[91] u[92] u[93] u[94] u[95] u[96]
 u[97] u[98] u[99] u[100] u[101] u[102] u[103] u[104] u[105] u[106] u[107]
 u[108] u[109] u[110] u[111] u[112] u[113] u[114] u[115] u[116] u[117]
 u[118] u[119] u[120] u[121] u[122] u[123] u[124] u[125] u[126] u[127]
 u[128] u[129] u[130] u[131] u[132] u[133] u[134] u[135] u[136] u[137]
 u[138] u[139] r[0] r[1] r[2] r[3] r[4] r[5] r[6] r[7] r[8] r[9] r[10]
 r[11] r[12] r[13] r[14] r[15] r[16] r[17] r[18] r[19] r[20] r[21] r[22]
 r[23] r[24] r[25] r[26] r[27] r[28] r[29] r[30] r[31] r[32] r[33] r[34]
 r[35] r[36] r[37] r[38] r[39] r[40] r[41] r[42] r[43] r[44] r[45] r[46]
 r[47] r[48] r[49] r[50] r[51] r[52] r[53] r[54] r[55] r[56] r[57] r[58]
 r[59] r[60] r[61] r[62] r[63] r[64] r[65] r[66] r[67] r[68] r[69] r[70]
 r[71] r[72] r[73] r[74] r[75] r[76] r[77] r[78] r[79] r[80] r[81] r[82]
 r[83] r[84] r[85] r[86] r[87] r[88] r[89] r[90] r[91] r[92] r[93] r[94]
 r[95] r[96] r[97] r[98] r[99] r[100] r[101] r[102] r[103] r[104] r[105]
 r[106] r[107] r[108] r[109] r[110] r[111] r[112] r[113] r[114] r[115]
 r[116] r[117] r[118] r[119] r[120] r[121] r[122] r[123] r[124] r[125]
 r[126] r[127] r[128] r[129] r[130] r[131] r[132] r[133] r[134] r[135]
 r[136] r[137] r[138] r[139]
End
